40	100	100	100
5	58	12
9	27	66
5	10	49
67	73	93
14	53	1
14	74	55
54	67	33
36	21	55
15	9	9
81	5	3
22	9	75
61	28	7
59	23	40
14	38	34
12	27	79
26	38	91
62	78	14
43	1	44
94	32	27
23	73	4
74	61	17
48	72	82
2	96	62
34	35	88
40	39	95
80	40	70
77	44	2
50	50	24
12	15	76
75	20	2
35	33	44
93	75	69
54	39	67
92	78	46
88	89	68
89	54	20
75	9	78
84	18	18
90	98	79
9	21	81
